ipopt version check failed: name 'shutil' is not defined
/Users/snarasi2/.matplotlib is not a writable directory
Matplotlib created a temporary cache directory at /var/folders/s_/6c59kmq52ng_lrn3ml1_mg5m0000gt/T/matplotlib-hrhupsb3 because there was an issue with the default path (/Users/snarasi2/.matplotlib); it is highly recommended to set the MPLCONFIGDIR environment variable to a writable directory, in particular to speed up the import of Matplotlib and to better support multiprocessing.
Matplotlib is building the font cache; this may take a moment.
Objective option: trace
=== INITIAL DESIGN (central) [pre-create] ===
design_values:
(experiment_inputs unavailable before create_doe_model)
sys.executable: /opt/anaconda3/bin/python
pyomo.__file__: /opt/anaconda3/lib/python3.13/site-packages/pyomo/__init__.py
ipopt executable: /Users/snarasi2/.idaes/bin/ipopt
ipopt options: file_print_level: 12
linear_solver: 'ma57'
output_file: 'ipopt.out'
idaes bin-directory: <unavailable> (cannot import name 'paths' from 'idaes.core.util' (/opt/anaconda3/lib/python3.13/site-packages/idaes/core/util/__init__.py))
Ipopt 3.13.2: linear_solver=ma57
output_file=ipopt.out
file_print_level=12


******************************************************************************
This program contains Ipopt, a library for large-scale nonlinear optimization.
 Ipopt is released as open source code under the Eclipse Public License (EPL).
         For more information visit http://projects.coin-or.org/Ipopt

This version of Ipopt was compiled from source code available at
    https://github.com/IDAES/Ipopt as part of the Institute for the Design of
    Advanced Energy Systems Process Systems Engineering Framework (IDAES PSE
    Framework) Copyright (c) 2018-2019. See https://github.com/IDAES/idaes-pse.

This version of Ipopt was compiled using HSL, a collection of Fortran codes
    for large-scale scientific computation.  All technical papers, sales and
    publicity material resulting from use of the HSL codes within IPOPT must
    contain the following acknowledgement:
        HSL, a collection of Fortran codes for large-scale scientific
        computation. See http://www.hsl.rl.ac.uk.
******************************************************************************

This is Ipopt version 3.13.2, running with linear solver ma57.

Number of nonzeros in equality constraint Jacobian...:    41977
Number of nonzeros in inequality constraint Jacobian.:        0
Number of nonzeros in Lagrangian Hessian.............:        0

Total number of variables............................:    15377
                     variables with only lower bounds:        0
                variables with lower and upper bounds:        0
                     variables with only upper bounds:        0
Total number of equality constraints.................:    15377
Total number of inequality constraints...............:        0
        inequality constraints with only lower bounds:        0
   inequality constraints with lower and upper bounds:        0
        inequality constraints with only upper bounds:        0

iter    objective    inf_pr   inf_du lg(mu)  ||d||  lg(rg) alpha_du alpha_pr  ls
   0  0.0000000e+00 1.00e+00 0.00e+00  -1.0 0.00e+00    -  0.00e+00 0.00e+00   0
Reallocating memory for MA57: lfact (1314870)
   1  0.0000000e+00 5.97e-09 0.00e+00  -1.7 2.50e+03    -  1.00e+00 1.00e+00h  1

Number of Iterations....: 1

                                   (scaled)                 (unscaled)
Objective...............:   0.0000000000000000e+00    0.0000000000000000e+00
Dual infeasibility......:   0.0000000000000000e+00    0.0000000000000000e+00
Constraint violation....:   5.9740452584833292e-09    5.9740452584833292e-09
Complementarity.........:   0.0000000000000000e+00    0.0000000000000000e+00
Overall NLP error.......:   5.9740452584833292e-09    5.9740452584833292e-09


Number of objective function evaluations             = 2
Number of objective gradient evaluations             = 2
Number of equality constraint evaluations            = 2
Number of inequality constraint evaluations          = 0
Number of equality constraint Jacobian evaluations   = 2
Number of inequality constraint Jacobian evaluations = 0
Number of Lagrangian Hessian evaluations             = 1
Total CPU secs in IPOPT (w/o function evaluations)   =      0.543
Total CPU secs in NLP function evaluations           =      0.000

EXIT: Optimal Solution Found.
Ipopt 3.13.2: linear_solver=ma57
output_file=ipopt.out
file_print_level=12


******************************************************************************
This program contains Ipopt, a library for large-scale nonlinear optimization.
 Ipopt is released as open source code under the Eclipse Public License (EPL).
         For more information visit http://projects.coin-or.org/Ipopt

This version of Ipopt was compiled from source code available at
    https://github.com/IDAES/Ipopt as part of the Institute for the Design of
    Advanced Energy Systems Process Systems Engineering Framework (IDAES PSE
    Framework) Copyright (c) 2018-2019. See https://github.com/IDAES/idaes-pse.

This version of Ipopt was compiled using HSL, a collection of Fortran codes
    for large-scale scientific computation.  All technical papers, sales and
    publicity material resulting from use of the HSL codes within IPOPT must
    contain the following acknowledgement:
        HSL, a collection of Fortran codes for large-scale scientific
        computation. See http://www.hsl.rl.ac.uk.
******************************************************************************

This is Ipopt version 3.13.2, running with linear solver ma57.

Number of nonzeros in equality constraint Jacobian...:    41977
Number of nonzeros in inequality constraint Jacobian.:        0
Number of nonzeros in Lagrangian Hessian.............:        0

Total number of variables............................:    15377
                     variables with only lower bounds:        0
                variables with lower and upper bounds:        0
                     variables with only upper bounds:        0
Total number of equality constraints.................:    15377
Total number of inequality constraints...............:        0
        inequality constraints with only lower bounds:        0
   inequality constraints with lower and upper bounds:        0
        inequality constraints with only upper bounds:        0

iter    objective    inf_pr   inf_du lg(mu)  ||d||  lg(rg) alpha_du alpha_pr  ls
   0  0.0000000e+00 3.30e-02 0.00e+00  -1.0 0.00e+00    -  0.00e+00 0.00e+00   0
Reallocating memory for MA57: lfact (1323497)
   1  0.0000000e+00 6.15e-12 0.00e+00  -2.5 3.87e-02    -  1.00e+00 1.00e+00h  1

Number of Iterations....: 1

                                   (scaled)                 (unscaled)
Objective...............:   0.0000000000000000e+00    0.0000000000000000e+00
Dual infeasibility......:   0.0000000000000000e+00    0.0000000000000000e+00
Constraint violation....:   6.1493482984273783e-12    6.1493482984273783e-12
Complementarity.........:   0.0000000000000000e+00    0.0000000000000000e+00
Overall NLP error.......:   6.1493482984273783e-12    6.1493482984273783e-12


Number of objective function evaluations             = 2
Number of objective gradient evaluations             = 2
Number of equality constraint evaluations            = 2
Number of inequality constraint evaluations          = 0
Number of equality constraint Jacobian evaluations   = 2
Number of inequality constraint Jacobian evaluations = 0
Number of Lagrangian Hessian evaluations             = 1
Total CPU secs in IPOPT (w/o function evaluations)   =      0.558
Total CPU secs in NLP function evaluations           =      0.000

EXIT: Optimal Solution Found.
Ipopt 3.13.2: linear_solver=ma57
output_file=ipopt.out
file_print_level=12


******************************************************************************
This program contains Ipopt, a library for large-scale nonlinear optimization.
 Ipopt is released as open source code under the Eclipse Public License (EPL).
         For more information visit http://projects.coin-or.org/Ipopt

This version of Ipopt was compiled from source code available at
    https://github.com/IDAES/Ipopt as part of the Institute for the Design of
    Advanced Energy Systems Process Systems Engineering Framework (IDAES PSE
    Framework) Copyright (c) 2018-2019. See https://github.com/IDAES/idaes-pse.

This version of Ipopt was compiled using HSL, a collection of Fortran codes
    for large-scale scientific computation.  All technical papers, sales and
    publicity material resulting from use of the HSL codes within IPOPT must
    contain the following acknowledgement:
        HSL, a collection of Fortran codes for large-scale scientific
        computation. See http://www.hsl.rl.ac.uk.
******************************************************************************

This is Ipopt version 3.13.2, running with linear solver ma57.

Number of nonzeros in equality constraint Jacobian...:    41977
Number of nonzeros in inequality constraint Jacobian.:        0
Number of nonzeros in Lagrangian Hessian.............:        0

Total number of variables............................:    15377
                     variables with only lower bounds:        0
                variables with lower and upper bounds:        0
                     variables with only upper bounds:        0
Total number of equality constraints.................:    15377
Total number of inequality constraints...............:        0
        inequality constraints with only lower bounds:        0
   inequality constraints with lower and upper bounds:        0
        inequality constraints with only upper bounds:        0

iter    objective    inf_pr   inf_du lg(mu)  ||d||  lg(rg) alpha_du alpha_pr  ls
   0  0.0000000e+00 3.30e-02 0.00e+00  -1.0 0.00e+00    -  0.00e+00 0.00e+00   0
Reallocating memory for MA57: lfact (1331066)
   1  0.0000000e+00 1.71e-13 0.00e+00  -2.5 3.88e-02    -  1.00e+00 1.00e+00h  1

Number of Iterations....: 1

                                   (scaled)                 (unscaled)
Objective...............:   0.0000000000000000e+00    0.0000000000000000e+00
Dual infeasibility......:   0.0000000000000000e+00    0.0000000000000000e+00
Constraint violation....:   1.7053025658242223e-13    1.7053025658242223e-13
Complementarity.........:   0.0000000000000000e+00    0.0000000000000000e+00
Overall NLP error.......:   1.7053025658242223e-13    1.7053025658242223e-13


Number of objective function evaluations             = 2
Number of objective gradient evaluations             = 2
Number of equality constraint evaluations            = 2
Number of inequality constraint evaluations          = 0
Number of equality constraint Jacobian evaluations   = 2
Number of inequality constraint Jacobian evaluations = 0
Number of Lagrangian Hessian evaluations             = 1
Total CPU secs in IPOPT (w/o function evaluations)   =      0.806
Total CPU secs in NLP function evaluations           =      0.000

EXIT: Optimal Solution Found.
=== INITIAL DESIGN (central) ===
scenario_blocks[0].u[0] = 0
scenario_blocks[0].u[0.026667] = 0
scenario_blocks[0].u[0.053333] = 0
scenario_blocks[0].u[0.08] = 0
scenario_blocks[0].u[0.106667] = 0
scenario_blocks[0].u[0.133333] = 0
scenario_blocks[0].u[0.16] = 0
scenario_blocks[0].u[0.186667] = 0
scenario_blocks[0].u[0.213333] = 0
scenario_blocks[0].u[0.24] = 0
scenario_blocks[0].u[0.266667] = 0
scenario_blocks[0].u[0.293333] = 0
scenario_blocks[0].u[0.32] = 0
scenario_blocks[0].u[0.346667] = 0
scenario_blocks[0].u[0.373333] = 0
scenario_blocks[0].u[0.4] = 0
scenario_blocks[0].u[0.426667] = 0
scenario_blocks[0].u[0.453333] = 0
scenario_blocks[0].u[0.48] = 0
scenario_blocks[0].u[0.506667] = 0
scenario_blocks[0].u[0.533333] = 0
scenario_blocks[0].u[0.56] = 0
scenario_blocks[0].u[0.586667] = 0
scenario_blocks[0].u[0.613333] = 0
scenario_blocks[0].u[0.64] = 0
scenario_blocks[0].u[0.666667] = 0
scenario_blocks[0].u[0.693333] = 0
scenario_blocks[0].u[0.72] = 0
scenario_blocks[0].u[0.746667] = 0
scenario_blocks[0].u[0.773333] = 0
scenario_blocks[0].u[0.8] = 0
scenario_blocks[0].u[0.826667] = 0
scenario_blocks[0].u[0.853333] = 0
scenario_blocks[0].u[0.88] = 0
scenario_blocks[0].u[0.906667] = 0
scenario_blocks[0].u[0.933333] = 0
scenario_blocks[0].u[0.96] = 0
scenario_blocks[0].u[0.986667] = 0
scenario_blocks[0].u[1.013333] = 0
scenario_blocks[0].u[1.04] = 0
scenario_blocks[0].u[1.066667] = 0
scenario_blocks[0].u[1.093333] = 0
scenario_blocks[0].u[1.12] = 0
scenario_blocks[0].u[1.146667] = 0
scenario_blocks[0].u[1.173333] = 0
scenario_blocks[0].u[1.2] = 0
scenario_blocks[0].u[1.226667] = 0
scenario_blocks[0].u[1.253333] = 0
scenario_blocks[0].u[1.28] = 0
scenario_blocks[0].u[1.306667] = 0
scenario_blocks[0].u[1.333333] = 0
scenario_blocks[0].u[1.36] = 0
scenario_blocks[0].u[1.386667] = 0
scenario_blocks[0].u[1.413333] = 0
scenario_blocks[0].u[1.44] = 0
scenario_blocks[0].u[1.466667] = 0
scenario_blocks[0].u[1.493333] = 0
scenario_blocks[0].u[1.52] = 0
scenario_blocks[0].u[1.546667] = 0
scenario_blocks[0].u[1.573333] = 0
scenario_blocks[0].u[1.6] = 0
scenario_blocks[0].u[1.626667] = 0
scenario_blocks[0].u[1.653333] = 0
scenario_blocks[0].u[1.68] = 0
scenario_blocks[0].u[1.706667] = 0
scenario_blocks[0].u[1.733333] = 0
scenario_blocks[0].u[1.76] = 0
scenario_blocks[0].u[1.786667] = 0
scenario_blocks[0].u[1.813333] = 0
scenario_blocks[0].u[1.84] = 0
scenario_blocks[0].u[1.866667] = 0
scenario_blocks[0].u[1.893333] = 0
scenario_blocks[0].u[1.92] = 0
scenario_blocks[0].u[1.946667] = 0
scenario_blocks[0].u[1.973333] = 0
scenario_blocks[0].u[2] = 0
Ipopt 3.13.2: linear_solver=ma57
output_file=ipopt.out
file_print_level=12


******************************************************************************
This program contains Ipopt, a library for large-scale nonlinear optimization.
 Ipopt is released as open source code under the Eclipse Public License (EPL).
         For more information visit http://projects.coin-or.org/Ipopt

This version of Ipopt was compiled from source code available at
    https://github.com/IDAES/Ipopt as part of the Institute for the Design of
    Advanced Energy Systems Process Systems Engineering Framework (IDAES PSE
    Framework) Copyright (c) 2018-2019. See https://github.com/IDAES/idaes-pse.

This version of Ipopt was compiled using HSL, a collection of Fortran codes
    for large-scale scientific computation.  All technical papers, sales and
    publicity material resulting from use of the HSL codes within IPOPT must
    contain the following acknowledgement:
        HSL, a collection of Fortran codes for large-scale scientific
        computation. See http://www.hsl.rl.ac.uk.
******************************************************************************

This is Ipopt version 3.13.2, running with linear solver ma57.

Number of nonzeros in equality constraint Jacobian...:    99611
Number of nonzeros in inequality constraint Jacobian.:        0
Number of nonzeros in Lagrangian Hessian.............:     3876

Total number of variables............................:    34707
                     variables with only lower bounds:        0
                variables with lower and upper bounds:       76
                     variables with only upper bounds:        0
Total number of equality constraints.................:    34707
Total number of inequality constraints...............:        0
        inequality constraints with only lower bounds:        0
   inequality constraints with lower and upper bounds:        0
        inequality constraints with only upper bounds:        0

iter    objective    inf_pr   inf_du lg(mu)  ||d||  lg(rg) alpha_du alpha_pr  ls
   0  0.0000000e+00 9.90e+01 0.00e+00  -1.0 0.00e+00    -  0.00e+00 0.00e+00   0
Reallocating memory for MA57: lfact (3452092)
   1  0.0000000e+00 1.95e+02 1.09e-01  -1.0 1.01e+02    -  1.00e+00 9.90e-01H  1
   2  0.0000000e+00 3.86e+00 9.90e+00  -1.0 5.84e+02    -  1.00e+00 9.90e-01h  1
   3  0.0000000e+00 1.94e-04 1.72e-11  -1.0 7.75e+00    -  1.00e+00 1.00e+00h  1
   4  0.0000000e+00 6.91e-11 6.47e-12  -5.7 1.94e-04    -  1.00e+00 1.00e+00h  1

Number of Iterations....: 4

                                   (scaled)                 (unscaled)
Objective...............:   0.0000000000000000e+00    0.0000000000000000e+00
Dual infeasibility......:   0.0000000000000000e+00    0.0000000000000000e+00
Constraint violation....:   3.4560798667371273e-11    6.9121597334742546e-11
Complementarity.........:   0.0000000000000000e+00    0.0000000000000000e+00
Overall NLP error.......:   3.4560798667371273e-11    6.9121597334742546e-11


Number of objective function evaluations             = 6
Number of objective gradient evaluations             = 5
Number of equality constraint evaluations            = 6
Number of inequality constraint evaluations          = 0
Number of equality constraint Jacobian evaluations   = 5
Number of inequality constraint Jacobian evaluations = 0
Number of Lagrangian Hessian evaluations             = 4
Total CPU secs in IPOPT (w/o function evaluations)   =      3.229
Total CPU secs in NLP function evaluations           =      0.003

EXIT: Optimal Solution Found.
Ipopt 3.13.2: linear_solver=ma57
output_file=ipopt.out
file_print_level=12


******************************************************************************
This program contains Ipopt, a library for large-scale nonlinear optimization.
 Ipopt is released as open source code under the Eclipse Public License (EPL).
         For more information visit http://projects.coin-or.org/Ipopt

This version of Ipopt was compiled from source code available at
    https://github.com/IDAES/Ipopt as part of the Institute for the Design of
    Advanced Energy Systems Process Systems Engineering Framework (IDAES PSE
    Framework) Copyright (c) 2018-2019. See https://github.com/IDAES/idaes-pse.

This version of Ipopt was compiled using HSL, a collection of Fortran codes
    for large-scale scientific computation.  All technical papers, sales and
    publicity material resulting from use of the HSL codes within IPOPT must
    contain the following acknowledgement:
        HSL, a collection of Fortran codes for large-scale scientific
        computation. See http://www.hsl.rl.ac.uk.
******************************************************************************

This is Ipopt version 3.13.2, running with linear solver ma57.

Number of nonzeros in equality constraint Jacobian...:    99765
Number of nonzeros in inequality constraint Jacobian.:        0
Number of nonzeros in Lagrangian Hessian.............:     3877

Reallocating memory for MA57: lfact (3839638)
Total number of variables............................:    34784
                     variables with only lower bounds:        1
                variables with lower and upper bounds:      152
                     variables with only upper bounds:        0
Total number of equality constraints.................:    34708
Total number of inequality constraints...............:        0
        inequality constraints with only lower bounds:        0
   inequality constraints with lower and upper bounds:        0
        inequality constraints with only upper bounds:        0

iter    objective    inf_pr   inf_du lg(mu)  ||d||  lg(rg) alpha_du alpha_pr  ls
   0 -0.0000000e+00 1.97e+04 7.17e-01  -1.0 0.00e+00    -  0.00e+00 0.00e+00   0
   1 -2.0680489e-01 5.44e+03 8.85e+01  -1.0 1.97e+04    -  1.07e-02 9.63e-01f  1
   2 -2.3112491e-01 4.78e+03 7.52e+01  -1.0 7.25e+02    -  2.88e-01 1.27e-01h  1
   3 -2.7552486e-01 4.10e+03 5.45e+01  -1.0 6.32e+02    -  5.35e-01 1.52e-01h  1
   4 -4.2974413e-01 3.38e+03 3.86e+01  -1.0 5.33e+02    -  3.88e-01 1.95e-01h  1
   5 -6.8452725e-01 3.00e+03 2.06e+01  -1.0 4.16e+02    -  4.47e-01 1.30e-01h  1
   6 -1.1496898e+00 2.81e+03 2.34e+01  -1.0 2.52e+02    -  3.91e-02 7.45e-02h  1
   7 -2.0553541e+00 2.69e+03 3.47e+01  -1.0 2.23e+03    -  8.90e-03 4.46e-02h  1
   8 -3.4998177e+00 2.68e-01 3.78e-01  -1.0 3.05e+03    -  1.00e+00 1.00e+00f  1
   9 -3.5181928e+00 2.53e+00 2.26e-01  -1.0 1.37e+02    -  9.85e-01 1.00e+00f  1
iter    objective    inf_pr   inf_du lg(mu)  ||d||  lg(rg) alpha_du alpha_pr  ls
  10 -3.7872907e+00 7.40e+02 1.56e-03  -1.0 2.83e+03    -  1.00e+00 1.00e+00f  1
  11 -4.0275600e+00 6.73e+02 5.27e-04  -1.0 4.53e+03    -  9.59e-01 1.00e+00h  1
  12 -3.9800880e+00 8.59e+01 3.01e-04  -1.0 1.10e+03    -  1.00e+00 1.00e+00h  1
  13 -3.9844753e+00 5.26e-03 1.00e-06  -1.0 9.70e+01    -  1.00e+00 1.00e+00h  1
  14 -3.9898762e+00 4.86e-01 5.20e-06  -2.5 1.21e+02    -  1.00e+00 1.00e+00h  1
  15 -4.1246852e+00 5.50e+02 2.84e-04  -2.5 3.56e+03    -  1.00e+00 1.00e+00h  1
  16 -4.1165990e+00 4.47e+01 2.21e-05  -2.5 2.46e+02    -  1.00e+00 1.00e+00h  1
  17 -4.1154018e+00 6.09e-01 5.65e-08  -2.5 3.60e+01    -  1.00e+00 1.00e+00h  1
  18 -4.1153826e+00 5.57e-05 2.83e-08  -2.5 5.77e-01    -  1.00e+00 1.00e+00h  1
  19 -4.1863260e+00 1.22e+02 6.53e-05  -3.8 2.31e+03    -  8.84e-01 1.00e+00f  1
iter    objective    inf_pr   inf_du lg(mu)  ||d||  lg(rg) alpha_du alpha_pr  ls
  20 -4.2311772e+00 3.44e+02 8.40e-05  -3.8 3.05e+03    -  5.70e-01 5.48e-01h  1
  21 -4.2668768e+00 1.22e+02 4.40e-05  -3.8 1.66e+03    -  8.36e-01 8.78e-01h  1
  22 -4.2724314e+00 2.39e+00 6.63e-08  -3.8 2.38e+02    -  1.00e+00 1.00e+00h  1
  23 -4.2724384e+00 1.46e-02 1.50e-09  -3.8 3.01e-01    -  1.00e+00 1.00e+00h  1
  24 -4.2724379e+00 7.13e-05 1.50e-09  -3.8 2.11e-02    -  1.00e+00 1.00e+00h  1
  25 -4.2908244e+00 2.49e+01 6.01e-05  -5.7 8.31e+02    -  7.61e-01 9.75e-01f  1
  26 -4.2924656e+00 9.26e+00 1.09e-05  -5.7 1.10e+02    -  8.11e-01 6.71e-01h  1
  27 -4.2932321e+00 3.57e-02 2.31e-08  -5.7 3.46e+01    -  1.00e+00 1.00e+00h  1
  28 -4.2932335e+00 1.56e-05 1.84e-11  -5.7 6.12e-02    -  1.00e+00 1.00e+00h  1
  29 -4.2935092e+00 5.58e-03 2.26e-08  -8.6 1.25e+01    -  9.93e-01 1.00e+00h  1
iter    objective    inf_pr   inf_du lg(mu)  ||d||  lg(rg) alpha_du alpha_pr  ls
  30 -4.2935096e+00 4.65e-09 2.51e-14  -8.6 1.89e-02    -  1.00e+00 1.00e+00h  1

Number of Iterations....: 30

                                   (scaled)                 (unscaled)
Objective...............:  -4.2935096116745921e+00   -4.2935096116745921e+00
Dual infeasibility......:   2.5079558062470030e-14    2.5079558062470030e-14
Constraint violation....:   4.6529748942703009e-09    4.6529748942703009e-09
Complementarity.........:   2.5059485957879363e-09    2.5059485957879363e-09
Overall NLP error.......:   4.6529748942703009e-09    4.6529748942703009e-09


Number of objective function evaluations             = 31
Number of objective gradient evaluations             = 31
Number of equality constraint evaluations            = 31
Number of inequality constraint evaluations          = 0
Number of equality constraint Jacobian evaluations   = 31
Number of inequality constraint Jacobian evaluations = 0
Number of Lagrangian Hessian evaluations             = 30
Total CPU secs in IPOPT (w/o function evaluations)   =     32.417
Total CPU secs in NLP function evaluations           =      0.025

EXIT: Optimal Solution Found.
=== FINAL DESIGN (central) ===
u[0] = 0.49999999999999994
u[0.026667] = 6.512329218295467e-06
u[0.053333] = 2.5387643086385937e-06
u[0.08] = 1.5975265878100144e-06
u[0.106667] = 1.1836522960482618e-06
u[0.133333] = 9.551938479874217e-07
u[0.16] = 8.12784315233667e-07
u[0.186667] = 7.171049496988253e-07
u[0.213333] = 6.494529046187343e-07
u[0.24] = 5.997896978919145e-07
u[0.266667] = 5.624072337063449e-07
u[0.293333] = 5.337542442562092e-07
u[0.32] = 5.114775484705782e-07
u[0.346667] = 4.940847527192845e-07
u[0.373333] = 4.805056092219536e-07
u[0.4] = 4.69922829193486e-07
u[0.426667] = 4.6182289564167945e-07
u[0.453333] = 4.557901538914601e-07
u[0.48] = 4.514579749535578e-07
u[0.506667] = 4.4862560373881443e-07
u[0.533333] = 4.4710382375192054e-07
u[0.56] = 4.4669267848307804e-07
u[0.586667] = 4.4731456225315796e-07
u[0.613333] = 4.4887431379748136e-07
u[0.64] = 4.5124401645886773e-07
u[0.666667] = 4.544028848630596e-07
u[0.693333] = 4.5830060178022384e-07
u[0.72] = 4.6284399754159877e-07
u[0.746667] = 4.6804244173864927e-07
u[0.773333] = 4.738696991599016e-07
u[0.8] = 4.802508216608572e-07
u[0.826667] = 4.872137278304566e-07
u[0.853333] = 4.947468934945501e-07
u[0.88] = 5.027858350821865e-07
u[0.906667] = 5.113720940155381e-07
u[0.933333] = 5.205048467253154e-07
u[0.96] = 5.301267147079644e-07
u[0.986667] = 5.402915441741412e-07
u[1.013333] = 5.51008345087911e-07
u[1.04] = 5.622263018000907e-07
u[1.066667] = 5.740128471854646e-07
u[1.093333] = 5.863884776655747e-07
u[1.12] = 5.993109057440832e-07
u[1.146667] = 6.128650797442821e-07
u[1.173333] = 6.270874672202897e-07
u[1.2] = 6.419493473251352e-07
u[1.226667] = 6.575607013602339e-07
u[1.253333] = 6.739825607271897e-07
u[1.28] = 6.912095362954792e-07
u[1.306667] = 7.093900220597057e-07
u[1.333333] = 7.286252318317443e-07
u[1.36] = 7.489513140134542e-07
u[1.386667] = 7.705793269019088e-07
u[1.413333] = 7.936798211600705e-07
u[1.44] = 8.183656000486967e-07
u[1.466667] = 8.449570821298862e-07
u[1.493333] = 8.737523301898422e-07
u[1.52] = 9.050136877880084e-07
u[1.546667] = 9.392693319349316e-07
u[1.573333] = 9.77072760264125e-07
u[1.6] = 1.0190038742728303e-06
u[1.626667] = 1.0660324710475408e-06
u[1.653333] = 1.11928803552424e-06
u[1.68] = 1.180114863778e-06
u[1.706667] = 1.250578351017498e-06
u[1.733333] = 1.3333465115570642e-06
u[1.76] = 1.4319843329796382e-06
u[1.786667] = 1.5519673978609371e-06
u[1.813333] = 1.7012941905441333e-06
u[1.84] = 1.8922714063359006e-06
u[1.866667] = 2.145793895102936e-06
u[1.893333] = 2.4990105888586593e-06
u[1.92] = 3.0254634679672496e-06
u[1.946667] = 3.896436947820824e-06
u[1.973333] = 5.620453622699224e-06
u[2] = 1.0702688304050756e-05
Number of Iterations....: 30

                                   (scaled)                 (unscaled)
Objective...............:  -0.0000000000000000e+00   -0.0000000000000000e+00
Dual infeasibility......:  7.1714124463922246e-01   7.1714124463922246e-01
Constraint violation....:  1.9655671608367298e+04   1.9655671608367298e+04
Complementarity.........:  1.0000000098999999e+00   1.0000000098999999e+00
Overall NLP error.......:  1.9655671608367298e+04   1.9655671608367298e+04

Number of objective function evaluations             = 31
Number of objective gradient evaluations             = 31
Number of equality constraint evaluations            = 31
Number of inequality constraint evaluations          = 0
Number of equality constraint Jacobian evaluations   = 31
Number of inequality constraint Jacobian evaluations = 0
Number of Lagrangian Hessian evaluations             = 30
Total CPU secs in IPOPT (w/o function evaluations)   = 32.417
Total CPU secs in NLP function evaluations           = 0.025
EXIT: Optimal Solution Found.
Optimal experiment values: 
	Temperature values: [0.50, 0.00, 0.00, 0.00, 0.00, 0.00, 0.00, 0.00, 0.00, 0.00, 0.00, 0.00, 0.00, 0.00, 0.00, 0.00, 0.00, 0.00, 0.00, 0.00, 0.00, 0.00, 0.00, 0.00, 0.00, 0.00, 0.00, 0.00, 0.00, 0.00, 0.00, 0.00, 0.00, 0.00, 0.00, 0.00, 0.00, 0.00, 0.00, 0.00, 0.00, 0.00, 0.00, 0.00, 0.00, 0.00, 0.00, 0.00, 0.00, 0.00, 0.00, 0.00, 0.00, 0.00, 0.00, 0.00, 0.00, 0.00, 0.00, 0.00, 0.00, 0.00, 0.00, 0.00, 0.00, 0.00, 0.00, 0.00, 0.00, 0.00, 0.00, 0.00, 0.00, 0.00, 0.00, 0.00]
FIM at optimal design:
 [[19656.65483615]]
Objective value at optimal design: 4.29
['u[0]', 'u[0.026667]', 'u[0.053333]', 'u[0.08]', 'u[0.106667]', 'u[0.133333]', 'u[0.16]', 'u[0.186667]', 'u[0.213333]', 'u[0.24]', 'u[0.266667]', 'u[0.293333]', 'u[0.32]', 'u[0.346667]', 'u[0.373333]', 'u[0.4]', 'u[0.426667]', 'u[0.453333]', 'u[0.48]', 'u[0.506667]', 'u[0.533333]', 'u[0.56]', 'u[0.586667]', 'u[0.613333]', 'u[0.64]', 'u[0.666667]', 'u[0.693333]', 'u[0.72]', 'u[0.746667]', 'u[0.773333]', 'u[0.8]', 'u[0.826667]', 'u[0.853333]', 'u[0.88]', 'u[0.906667]', 'u[0.933333]', 'u[0.96]', 'u[0.986667]', 'u[1.013333]', 'u[1.04]', 'u[1.066667]', 'u[1.093333]', 'u[1.12]', 'u[1.146667]', 'u[1.173333]', 'u[1.2]', 'u[1.226667]', 'u[1.253333]', 'u[1.28]', 'u[1.306667]', 'u[1.333333]', 'u[1.36]', 'u[1.386667]', 'u[1.413333]', 'u[1.44]', 'u[1.466667]', 'u[1.493333]', 'u[1.52]', 'u[1.546667]', 'u[1.573333]', 'u[1.6]', 'u[1.626667]', 'u[1.653333]', 'u[1.68]', 'u[1.706667]', 'u[1.733333]', 'u[1.76]', 'u[1.786667]', 'u[1.813333]', 'u[1.84]', 'u[1.866667]', 'u[1.893333]', 'u[1.92]', 'u[1.946667]', 'u[1.973333]', 'u[2]']
['Build Time', 'Experiment Design', 'Experiment Design Names', 'Experiment Output Names', 'Experiment Outputs', 'FIM', 'FIM Condition Number', 'Finite Difference Scheme', 'Finite Difference Step', 'Initialization Time', 'Measurement Error', 'Measurement Error Names', 'Nominal Parameter Scaling', 'Objective expression', 'Prior FIM', 'Sensitivity Matrix', 'Solve Time', 'Solver Status', 'Termination Condition', 'Termination Message', 'Unknown Parameter Names', 'Unknown Parameters', 'Wall-clock Time', 'log10 A-opt', 'log10 D-opt', 'log10 E-opt']
Solve time (s): 35.27324991580099
Build time (s): 0.0002259579487144947
Initialization time (s): 3.9784215420950204
Total wall time (s): 39.251897415844724
